webassembly/ejemplos_dzn/folder12_json_95.dzn
TERM = { '.', 's(5)', 's(2)', 's(4)', 'in_1', 'local_0', 'local_1', 'in_6', 'in_2', 'in_4', 'in_3', 's(1)', 's(0)', 'in_7', 'in_5', 's(3)', 'in_0'};
null = '.';
s = 12;
n = 13;
ndeps = 6;
max_registers_sz = 3;
NR = 0;
registers = [| |];
dependencies = [|'i32.store8_0', 'i32.store8_3', |'i32.store8_3', 'i32.store8_4', |'i32.store8_4', 'i32.load_5', |'i32.store8_4', 'i32.load8_s_6', |'i32.store8_4', 'i32.load8_s_9', |'i32.store8_4', 'i32.load8_s_10'|];
GET_ENUM = { GET1, GET2, GET3};
SET_ENUM = { SET1, SET2, SET3};
TEE_ENUM = { TEE1, TEE2, TEE3};
N = 11;
OP = { 'i32.store8_0', 'i32.store8_3', 'i32.store8_4', 'i32.load_5', 'i32.load8_s_6', 'i32.sub_0', 'i32.add_0', 'i32.load8_s_9', 'i32.load8_s_10', 'local.get_0', 'local.get_1' };
in_ops = [2, 2, 2, 1, 1, 2, 2, 1, 1, 0, 0 ];
out_ops = [0, 0, 0, 1, 1, 1, 1, 1, 1, 1, 1 ];
in1 = ['in_0', 'local_1', 'in_3', 'in_5', 's(0)', 's(1)', 's(2)', 's(3)', 's(4)', '.', '.' ];
in2 = ['in_1', 'in_2', 'in_4', '.', '.', 'in_6', 'in_7', '.', '.', '.', '.' ];
in3 = ['.', '.', '.', '.', '.', '.', '.', '.', '.', '.', '.' ];
out1 = ['.', '.', '.', 's(0)', 's(1)', 's(2)', 's(3)', 's(4)', 's(5)', 'local_0', 'local_1' ];
out2 = ['.', '.', '.', '.', '.', '.', '.', '.', '.', '.', '.' ];
out3 = ['.', '.', '.', '.', '.', '.', '.', '.', '.', '.', '.' ];
comm = [false, false, false, false, false, false, true, false, false, false, false ];
gas = [1, 1, 1, 1, 1, 1, 1, 1, 1, 1, 1 ];
sz = [1, 1, 1, 1, 1, 1, 1, 1, 1, 1, 1 ];
stor = [true, true, true, false, false, false, false, false, false, false, false ];
lb = [ 1, 1, 1, 1, 1, 1, 1, 1, 1, 1, 1 ];
ub = [ 12, 12, 12, 12, 12, 12, 12, 12, 12, 12, 12 ];
startstack = [ 'in_0', 'in_1', 'in_2', 'in_3', 'in_4', 'in_5', 'in_6', 'in_7', null, null, null, null, null ];
endstack = [ 'local_0', 's(5)', null, null, null, null, null, null, null, null, null, null, null ];
