webassembly/ejemplos_results/12/folder12_json_95.txt
value = 12;
fgas = [1, 1, 1, 2, 1, 1, 1, 1, 1, 1, 1, 1];
fsize = [1, 1, 1, 1, 1, 1, 1, 1, 1, 1, 1, 1];
states = 
[|    in_0,   in_1,   in_2, in_3, in_4, in_5, in_6, in_7, '.', '.', '.', '.', '.'
 |    in_5,   in_3,   in_4, in_5, in_6, in_7,  '.',  '.', '.', '.', '.', '.', '.'
 |  's(0)',   in_3,   in_4, in_5, in_6, in_7,  '.',  '.', '.', '.', '.', '.', '.'
 |  's(1)',   in_3,   in_4, in_5, in_6, in_7,  '.',  '.', '.', '.', '.', '.', '.'
 |    in_3,   in_4,   in_5, in_6, in_7,  '.',  '.',  '.', '.', '.', '.', '.', '.'
 |    in_2, 's(0)',   in_7,  '.',  '.',  '.',  '.',  '.', '.', '.', '.', '.', '.'
 | local_1,   in_2, 's(0)', in_7,  '.',  '.',  '.',  '.', '.', '.', '.', '.', '.'
 |  's(1)',   in_6,    '.',  '.',  '.',  '.',  '.',  '.', '.', '.', '.', '.', '.'
 |  's(2)',   in_7,    '.',  '.',  '.',  '.',  '.',  '.', '.', '.', '.', '.', '.'
 |  's(3)',    '.',    '.',  '.',  '.',  '.',  '.',  '.', '.', '.', '.', '.', '.'
 |  's(4)',    '.',    '.',  '.',  '.',  '.',  '.',  '.', '.', '.', '.', '.', '.'
 |  's(5)',    '.',    '.',  '.',  '.',  '.',  '.',  '.', '.', '.', '.', '.', '.'
 | local_0, 's(5)',    '.',  '.',  '.',  '.',  '.',  '.', '.', '.', '.', '.', '.'
 |];
register_states = 
[| '.', '.', '.'
 | '.', '.', '.'
 | '.', '.', '.'
 | '.', '.', '.'
 | '.', '.', '.'
 | '.', '.', '.'
 | '.', '.', '.'
 | '.', '.', '.'
 | '.', '.', '.'
 | '.', '.', '.'
 | '.', '.', '.'
 | '.', '.', '.'
 | '.', '.', '.'
 |];
program = [O('i32.store8_0'), O('i32.load_5'), O('i32.load8_s_6'), POP, O('i32.store8_4'), O('local.get_1'), O('i32.store8_3'), O('i32.sub_0'), O('i32.add_0'), O('i32.load8_s_9'), O('i32.load8_s_10'), O('local.get_0')];
% time elapsed: 0.48 s
----------
value = 11;
fgas = [1, 1, 1, 1, 1, 1, 1, 1, 1, 1, 1, 0];
fsize = [1, 1, 1, 1, 1, 1, 1, 1, 1, 1, 1, 1];
states = 
[|    in_0,   in_1, in_2, in_3, in_4, in_5, in_6, in_7, '.', '.', '.', '.', '.'
 |    in_3,   in_4, in_4, in_5, in_6, in_7,  '.',  '.', '.', '.', '.', '.', '.'
 |    in_2,   in_0, in_6, in_7,  '.',  '.',  '.',  '.', '.', '.', '.', '.', '.'
 | local_1,   in_2, in_0, in_6, in_7,  '.',  '.',  '.', '.', '.', '.', '.', '.'
 |    in_5,   in_6, in_7,  '.',  '.',  '.',  '.',  '.', '.', '.', '.', '.', '.'
 |  's(0)',   in_6, in_7,  '.',  '.',  '.',  '.',  '.', '.', '.', '.', '.', '.'
 |  's(1)',   in_6, in_7,  '.',  '.',  '.',  '.',  '.', '.', '.', '.', '.', '.'
 |  's(2)',   in_7,  '.',  '.',  '.',  '.',  '.',  '.', '.', '.', '.', '.', '.'
 |  's(3)',    '.',  '.',  '.',  '.',  '.',  '.',  '.', '.', '.', '.', '.', '.'
 |  's(4)',    '.',  '.',  '.',  '.',  '.',  '.',  '.', '.', '.', '.', '.', '.'
 |  's(5)',    '.',  '.',  '.',  '.',  '.',  '.',  '.', '.', '.', '.', '.', '.'
 | local_0, 's(5)',  '.',  '.',  '.',  '.',  '.',  '.', '.', '.', '.', '.', '.'
 | local_0, 's(5)',  '.',  '.',  '.',  '.',  '.',  '.', '.', '.', '.', '.', '.'
 |];
register_states = 
[| '.', '.', '.'
 | '.', '.', '.'
 | '.', '.', '.'
 | '.', '.', '.'
 | '.', '.', '.'
 | '.', '.', '.'
 | '.', '.', '.'
 | '.', '.', '.'
 | '.', '.', '.'
 | '.', '.', '.'
 | '.', '.', '.'
 | '.', '.', '.'
 | '.', '.', '.'
 |];
program = [O('i32.store8_0'), O('i32.store8_4'), O('local.get_1'), O('i32.store8_3'), O('i32.load_5'), O('i32.load8_s_6'), O('i32.sub_0'), O('i32.add_0'), O('i32.load8_s_9'), O('i32.load8_s_10'), O('local.get_0'), NOP];
% time elapsed: 0.61 s
----------
==========
% time elapsed: 0.63 s
% [value > 10]
